
  32    4
  10   10   10   10

   0   0   0   0   0  12 2 4 6 7 8 9 11 13 18 19 20 21 
   7   1   0   1   1   7 31 30 29 27 17 16 3 
   6   6   1   0   5   4 28 26 12 5 
   6   5   3   4   0   5 27 26 25 14 12 
   8   4   6   0   8   4 25 24 15 10 
  10   4   4   4   0   4 25 24 23 22 
   2  10   4   0   4   3 27 24 16 
   9   6   0   1   3   3 28 23 14 
   7   2   0   5   2   3 30 26 22 
  10   6   5   0   2   2 23 14 
   9   3   2   0   3   2 29 16 
   3   2   6   1   0   2 24 22 
   1   0   6   2   5   1 15 
   2   4   0   5   2   1 22 
   8   7   6   4   0   1 23 
   6   2   0   2   5   1 23 
   8   1   6   6   0   1 22 
   9   4   5   2   0   1 25 
   3   3   2   0   6   1 25 
   7   0   2   9   2   1 24 
   5   4   2   5   0   1 24 
   3   5   1   3   0   1 32
   1   2   4   0   4   1 32
  10   5   0   6   4   1 32
   3   0   4   4   5   1 32
  10   3   5   0   6   1 32
   2   3   0   5   4   1 32
   3   0   4   6   4   1 32
  10   0   5   2   6   1 32
   2   3   5   0   5   1 32
   6   5   0   7   2   1 32
   0   0   0   0   0   0 
